\ LP format - for model browsing. Use MPS format to capture full model detail.
Minimize
  0 B8(0) + 0 B13(0) + 0 B16(0) + 0 B17(0) + 0 B18(0) + 0 B19(0) + 0 B20(0)
   + 0 B21(0) + 0 B22(0) + 0 B23(0) + I32(1)
Subject To
 c0: B0(14) + B1(14) = 1
 c1: B2(13) + B3(13) = 1
 c2: B4(9) + B5(9) = 1
 c3: B6(8) + B7(8) = 1
 c4: - 25 B0(14) - 37 B1(14) - I24(14) - I25(14) + I26(15) + I27(15) >= 0
 c5: - 65025 B0(14) - 37 B1(14) - 65000 B2(13) - I24(14) - I25(14)
   + I26(15) + I27(15) >= -129997
 c6: - 25 B0(14) - 65037 B1(14) - 65000 B3(13) - I24(14) - I25(14)
   + I26(15) + I27(15) >= -129997
 c7: - 45 B4(9) - 65 B5(9) - I28(10) - I29(10) + I30(11) + I31(11) >= 0
 c8: - 65045 B4(9) - 65 B5(9) - 65000 B6(8) - I28(10) - I29(10) + I30(11)
   + I31(11) >= -129996
 c9: - 45 B4(9) - 65065 B5(9) - 65000 B7(8) - I28(10) - I29(10) + I30(11)
   + I31(11) >= -129996
 c10: - 65000 B0(14) + I24(14) <= 0
 c11: - 65000 B1(14) + I25(14) <= 0
 c12: - 65000 B2(13) + I26(15) <= 0
 c13: - 65000 B3(13) + I27(15) <= 0
 c14: - 65000 B4(9) + I28(10) <= 0
 c15: - 65000 B5(9) + I29(10) <= 0
 c16: - 65000 B6(8) + I30(11) <= 0
 c17: - 65000 B7(8) + I31(11) <= 0
 c18: - 65000 B0(14) - 65000 B2(13) - 65000 B9(4) + I24(14) - I26(15)
   >= -194965
 c19: - 65000 B0(14) - 65000 B2(13) + 65000 B9(4) - I24(14) + I26(15)
   >= -129972
 c20: - 65000 B1(14) - 65000 B3(13) - 65000 B9(4) + I25(14) - I27(15)
   >= -194973
 c21: - 65000 B1(14) - 65000 B3(13) + 65000 B9(4) - I25(14) + I27(15)
   >= -129960
 c22: - 65000 B0(14) - 65000 B4(9) - 65000 B10(4) + I24(14) - I28(10)
   >= -194952
 c23: - 65000 B0(14) - 65000 B4(9) + 65000 B10(4) - I24(14) + I28(10)
   >= -129971
 c24: - 65000 B1(14) - 65000 B5(9) - 65000 B10(4) + I25(14) - I29(10)
   >= -194932
 c25: - 65000 B1(14) - 65000 B5(9) + 65000 B10(4) - I25(14) + I29(10)
   >= -129959
 c26: - 65000 B0(14) - 65000 B6(8) - 65000 B11(4) + I24(14) - I30(11)
   >= -194975
 c27: - 65000 B0(14) - 65000 B6(8) + 65000 B11(4) - I24(14) + I30(11)
   >= -129971
 c28: - 65000 B1(14) - 65000 B7(8) - 65000 B11(4) + I25(14) - I31(11)
   >= -194932
 c29: - 65000 B1(14) - 65000 B7(8) + 65000 B11(4) - I25(14) + I31(11)
   >= -129960
 c30: - 65000 B0(14) - 65000 B2(13) - 65000 B12(4) - I24(14) + I26(15)
   >= -194972
 c31: - 65000 B0(14) - 65000 B2(13) + 65000 B12(4) + I24(14) - I26(15)
   >= -129965
 c32: - 65000 B1(14) - 65000 B3(13) - 65000 B12(4) - I25(14) + I27(15)
   >= -194960
 c33: - 65000 B1(14) - 65000 B3(13) + 65000 B12(4) + I25(14) - I27(15)
   >= -129973
 c34: - 65000 B2(13) - 65000 B4(9) - 65000 B14(4) + I26(15) - I28(10)
   >= -194952
 c35: - 65000 B2(13) - 65000 B4(9) + 65000 B14(4) - I26(15) + I28(10)
   >= -129964
 c36: - 65000 B3(13) - 65000 B5(9) - 65000 B14(4) + I27(15) - I29(10)
   >= -194932
 c37: - 65000 B3(13) - 65000 B5(9) + 65000 B14(4) - I27(15) + I29(10)
   >= -129973
 c38: - 65000 B2(13) - 65000 B6(8) - 65000 B15(4) + I26(15) - I30(11)
   >= -194975
 c39: - 65000 B2(13) - 65000 B6(8) + 65000 B15(4) - I26(15) + I30(11)
   >= -129964
 c40: - 65000 B3(13) - 65000 B7(8) - 65000 B15(4) + I27(15) - I31(11)
   >= -194931
 c41: - 65000 B3(13) - 65000 B7(8) + 65000 B15(4) - I27(15) + I31(11)
   >= -129973
 c42: - 8 B0(14) + I24(14) >= 0
 c43: I24(14) >= 0
 c44: - 8 B1(14) + I25(14) >= 0
 c45: I25(14) >= 0
 c46: - 8 B2(13) + I26(15) >= 0
 c47: I26(15) >= 0
 c48: - 8 B3(13) + I27(15) >= 0
 c49: I27(15) >= 0
 c50: I28(10) >= 0
 c51: I28(10) >= 0
 c52: I29(10) >= 0
 c53: I29(10) >= 0
 c54: I30(11) >= 0
 c55: I30(11) >= 0
 c56: I31(11) >= 0
 c57: I31(11) >= 0
 c58: - 32 B2(13) - 24 B3(13) - 21 B6(8) - 65 B7(8) - I26(15) - I27(15)
   - I30(11) - I31(11) + I32(1) = 0
Bounds
Binaries
 B0(14) B1(14) B2(13) B3(13) B4(9) B5(9) B6(8) B7(8) B8(0) B9(4) B10(4)
 B11(4) B12(4) B13(0) B14(4) B15(4) B16(0) B17(0) B18(0) B19(0) B20(0)
 B21(0) B22(0) B23(0)
Generals
 I24(14) I25(14) I26(15) I27(15) I28(10) I29(10) I30(11) I31(11) I32(1)
End
